(set-info :source |printed by MathSAT|)
(declare-fun hhv_ULTIMATE.start_ULTIMATE.startEXIT_0_Int () Int)
(declare-fun .x.285 () Int)
(declare-fun hhv_ULTIMATE.start_ULTIMATE.startEXIT_1_Array_Int_Int () (Array Int Int))
(declare-fun .x.286 () (Array Int Int))
(declare-fun hhv_ULTIMATE.start_ULTIMATE.startEXIT_2_Array_Int_Int () (Array Int Int))
(declare-fun .x.287 () (Array Int Int))
(declare-fun hhv_ULTIMATE.start_ULTIMATE.startEXIT_3_Array_Int_Array_Int_Int () (Array Int (Array Int Int)))
(declare-fun .x.288 () (Array Int (Array Int Int)))
(declare-fun hhv_ULTIMATE.start_ULTIMATE.startEXIT_4_Array_Int_Array_Int_Int () (Array Int (Array Int Int)))
(declare-fun .x.289 () (Array Int (Array Int Int)))
(declare-fun hhv_ULTIMATE.start_ULTIMATE.startEXIT_5_Int () Int)
(declare-fun .x.290 () Int)
(declare-fun hhv_ULTIMATE.start_ULTIMATE.startEXIT_6_Int () Int)
(declare-fun .x.291 () Int)
(declare-fun hhv_ULTIMATE.start_ULTIMATE.startEXIT_7_Array_Int_Int () (Array Int Int))
(declare-fun .x.292 () (Array Int Int))
(declare-fun hhv_ULTIMATE.start_ULTIMATE.startEXIT_8_Array_Int_Int () (Array Int Int))
(declare-fun .x.293 () (Array Int Int))
(declare-fun hhv_ULTIMATE.start_ULTIMATE.startEXIT_9_Int () Int)
(declare-fun .x.294 () Int)
(declare-fun hhv_ULTIMATE.start_ULTIMATE.startEXIT_10_Int () Int)
(declare-fun .x.295 () Int)
(declare-fun hhv_ULTIMATE.start_ULTIMATE.startEXIT_11_Int () Int)
(declare-fun .x.296 () Int)
(declare-fun hhv_ULTIMATE.start_ULTIMATE.startEXIT_12_Int () Int)
(declare-fun .x.297 () Int)
(declare-fun hhv_ULTIMATE.start_ULTIMATE.startEXIT_13_Int () Int)
(declare-fun .x.298 () Int)
(declare-fun hhv_ULTIMATE.start_ULTIMATE.startEXIT_14_Int () Int)
(declare-fun .x.299 () Int)
(declare-fun hhv_ULTIMATE.start_ULTIMATE.startEXIT_15_Int () Int)
(declare-fun .x.300 () Int)
(declare-fun hhv_ULTIMATE.start_ULTIMATE.startEXIT_16_Int () Int)
(declare-fun .x.301 () Int)
(declare-fun hhv_ULTIMATE.start_ULTIMATE.startEXIT_17_Int () Int)
(declare-fun .x.302 () Int)
(declare-fun hhv_ULTIMATE.start_ULTIMATE.startEXIT_18_Int () Int)
(declare-fun .x.303 () Int)
(declare-fun hhv_ULTIMATE.start_ULTIMATE.startEXIT_19_Int () Int)
(declare-fun .x.304 () Int)
(declare-fun hhv_ULTIMATE.start_ULTIMATE.startEXIT_20_Int () Int)
(declare-fun .x.305 () Int)
(declare-fun hhv_ULTIMATE.start_ULTIMATE.startEXIT_21_Int () Int)
(declare-fun .x.306 () Int)
(declare-fun hhv_ULTIMATE.start_ULTIMATE.startEXIT_22_Int () Int)
(declare-fun .x.307 () Int)
(declare-fun hbv_ULTIMATE.start_L2-1_23_Bool () Bool)
(declare-fun hhv_ULTIMATE.start_ULTIMATE.startEXIT_23_Bool () Bool)
(declare-fun .loc.5 () Bool)
(declare-fun .loc.9 () Bool)
(declare-fun .loc.6 () Bool)
(declare-fun .loc.10 () Bool)
(declare-fun .loc.7 () Bool)
(declare-fun .loc.11 () Bool)
(declare-fun .loc.8 () Bool)
(declare-fun .loc.12 () Bool)
(declare-fun hbv_ULTIMATE.start_L-1_1_Array_Int_Int () (Array Int Int))
(define-fun .def_8 () Int (! hhv_ULTIMATE.start_ULTIMATE.startEXIT_0_Int :next |.x.285|))
(define-fun .def_10 () (Array Int Int) (! hhv_ULTIMATE.start_ULTIMATE.startEXIT_1_Array_Int_Int :next |.x.286|))
(define-fun .def_12 () (Array Int Int) (! hhv_ULTIMATE.start_ULTIMATE.startEXIT_2_Array_Int_Int :next |.x.287|))
(define-fun .def_14 () (Array Int (Array Int Int)) (! hhv_ULTIMATE.start_ULTIMATE.startEXIT_3_Array_Int_Array_Int_Int :next |.x.288|))
(define-fun .def_16 () (Array Int (Array Int Int)) (! hhv_ULTIMATE.start_ULTIMATE.startEXIT_4_Array_Int_Array_Int_Int :next |.x.289|))
(define-fun .def_18 () Int (! hhv_ULTIMATE.start_ULTIMATE.startEXIT_5_Int :next |.x.290|))
(define-fun .def_20 () Int (! hhv_ULTIMATE.start_ULTIMATE.startEXIT_6_Int :next |.x.291|))
(define-fun .def_22 () (Array Int Int) (! hhv_ULTIMATE.start_ULTIMATE.startEXIT_7_Array_Int_Int :next |.x.292|))
(define-fun .def_24 () (Array Int Int) (! hhv_ULTIMATE.start_ULTIMATE.startEXIT_8_Array_Int_Int :next |.x.293|))
(define-fun .def_26 () Int (! hhv_ULTIMATE.start_ULTIMATE.startEXIT_9_Int :next |.x.294|))
(define-fun .def_28 () Int (! hhv_ULTIMATE.start_ULTIMATE.startEXIT_10_Int :next |.x.295|))
(define-fun .def_30 () Int (! hhv_ULTIMATE.start_ULTIMATE.startEXIT_11_Int :next |.x.296|))
(define-fun .def_32 () Int (! hhv_ULTIMATE.start_ULTIMATE.startEXIT_12_Int :next |.x.297|))
(define-fun .def_34 () Int (! hhv_ULTIMATE.start_ULTIMATE.startEXIT_13_Int :next |.x.298|))
(define-fun .def_36 () Int (! hhv_ULTIMATE.start_ULTIMATE.startEXIT_14_Int :next |.x.299|))
(define-fun .def_38 () Int (! hhv_ULTIMATE.start_ULTIMATE.startEXIT_15_Int :next |.x.300|))
(define-fun .def_40 () Int (! hhv_ULTIMATE.start_ULTIMATE.startEXIT_16_Int :next |.x.301|))
(define-fun .def_42 () Int (! hhv_ULTIMATE.start_ULTIMATE.startEXIT_17_Int :next |.x.302|))
(define-fun .def_44 () Int (! hhv_ULTIMATE.start_ULTIMATE.startEXIT_18_Int :next |.x.303|))
(define-fun .def_46 () Int (! hhv_ULTIMATE.start_ULTIMATE.startEXIT_19_Int :next |.x.304|))
(define-fun .def_48 () Int (! hhv_ULTIMATE.start_ULTIMATE.startEXIT_20_Int :next |.x.305|))
(define-fun .def_50 () Int (! hhv_ULTIMATE.start_ULTIMATE.startEXIT_21_Int :next |.x.306|))
(define-fun .def_52 () Int (! hhv_ULTIMATE.start_ULTIMATE.startEXIT_22_Int :next |.x.307|))
(define-fun .def_54 () Bool (! hbv_ULTIMATE.start_L2-1_23_Bool :next |hhv_ULTIMATE.start_ULTIMATE.startEXIT_23_Bool|))
(define-fun .def_56 () Bool (! .loc.5 :next |.loc.9|))
(define-fun .def_58 () Bool (! .loc.6 :next |.loc.10|))
(define-fun .def_60 () Bool (! .loc.7 :next |.loc.11|))
(define-fun .def_62 () Bool (! .loc.8 :next |.loc.12|))
(define-fun .def_89 () (Array Int Int) (! hbv_ULTIMATE.start_L-1_1_Array_Int_Int :next |.xtv.1|))
(define-fun .def_79 () Bool (not .def_58))
(define-fun .def_404 () Bool (and .def_56 .def_79))
(define-fun .def_81 () Bool (not .def_60))
(define-fun .def_405 () Bool (and .def_81 .def_404))
(define-fun .def_390 () Bool (not .def_62))
(define-fun .def_406 () Bool (and .def_390 .def_405))
(define-fun .def_398 () Bool (= .def_10 .def_12))
(define-fun .def_397 () Bool (= .def_22 .def_24))
(define-fun .def_399 () Bool (and .def_397 .def_398))
(define-fun .def_396 () Bool (= .def_18 .def_20))
(define-fun .def_400 () Bool (and .def_396 .def_399))
(define-fun .def_395 () Bool (= .def_26 .def_28))
(define-fun .def_401 () Bool (and .def_395 .def_400))
(define-fun .def_394 () Bool (= .def_14 .def_16))
(define-fun .def_402 () Bool (and .def_394 .def_401))
(define-fun .def_393 () Bool (not .def_54))
(define-fun .def_403 () Bool (and .def_393 .def_402))
(define-fun .def_407 () Bool (! (and .def_403 .def_406) :init true))
(define-fun .def_388 () Bool (= .def_28 .x.295))
(define-fun .def_386 () Bool (= .def_24 .x.293))
(define-fun .def_384 () Bool (= .def_20 .x.291))
(define-fun .def_382 () Bool (= .def_16 .x.289))
(define-fun .def_380 () Bool (= .def_8 .x.285))
(define-fun .def_379 () Bool (= .def_12 .x.287))
(define-fun .def_381 () Bool (and .def_379 .def_380))
(define-fun .def_383 () Bool (and .def_381 .def_382))
(define-fun .def_385 () Bool (and .def_383 .def_384))
(define-fun .def_387 () Bool (and .def_385 .def_386))
(define-fun .def_389 () Bool (and .def_387 .def_388))
(define-fun .def_391 () Bool (and .def_389 .def_390))
(define-fun .def_126 () Bool (= .def_10 .x.286))
(define-fun .def_355 () Bool (and hhv_ULTIMATE.start_ULTIMATE.startEXIT_23_Bool .def_126))
(define-fun .def_65 () Bool (= .def_30 .x.296))
(define-fun .def_356 () Bool (and .def_65 .def_355))
(define-fun .def_131 () Bool (= .def_32 .x.297))
(define-fun .def_357 () Bool (and .def_131 .def_356))
(define-fun .def_133 () Bool (= .def_34 .x.298))
(define-fun .def_358 () Bool (and .def_133 .def_357))
(define-fun .def_136 () Bool (= .def_38 .x.300))
(define-fun .def_359 () Bool (and .def_136 .def_358))
(define-fun .def_153 () Bool (not .def_56))
(define-fun .def_360 () Bool (and .def_153 .def_359))
(define-fun .def_351 () Bool (= .x.300 0))
(define-fun .def_349 () (Array Int Int) (store .def_10 .def_34 0))
(define-fun .def_350 () Bool (= .x.286 .def_349))
(define-fun .def_352 () Bool (and .def_350 .def_351))
(define-fun .def_353 () Bool (or .def_54 .def_352))
(define-fun .def_345 () Bool (= .x.296 .x.300))
(define-fun .def_346 () Bool (or hhv_ULTIMATE.start_ULTIMATE.startEXIT_23_Bool .def_345))
(define-fun .def_347 () Bool (and .def_56 .def_346))
(define-fun .def_75 () Bool (= .def_54 hhv_ULTIMATE.start_ULTIMATE.startEXIT_23_Bool))
(define-fun .def_348 () Bool (and .def_75 .def_347))
(define-fun .def_354 () Bool (and .def_348 .def_353))
(define-fun .def_361 () Bool (or .def_354 .def_360))
(define-fun .def_342 () Bool (and .def_58 .loc.12))
(define-fun .def_156 () Bool (not .loc.10))
(define-fun .def_343 () Bool (and .def_156 .def_342))
(define-fun .def_73 () Bool (not .loc.11))
(define-fun .def_344 () Bool (and .def_73 .def_343))
(define-fun .def_362 () Bool (and .def_344 .def_361))
(define-fun .def_182 () Bool (= .def_36 0))
(define-fun .def_340 () Bool (or .def_54 .def_182))
(define-fun .def_186 () Bool (and .def_65 .def_126))
(define-fun .def_187 () Bool (and .def_131 .def_186))
(define-fun .def_188 () Bool (and .def_133 .def_187))
(define-fun .def_303 () Bool (and .def_136 .def_188))
(define-fun .def_334 () Bool (and .def_56 .def_303))
(define-fun .def_335 () Bool (and .loc.10 .def_334))
(define-fun .def_336 () Bool (and .loc.11 .def_335))
(define-fun .def_337 () Bool (and .def_75 .def_336))
(define-fun .def_77 () Bool (not .loc.12))
(define-fun .def_338 () Bool (and .def_77 .def_337))
(define-fun .def_339 () Bool (and .def_79 .def_338))
(define-fun .def_341 () Bool (and .def_339 .def_340))
(define-fun .def_363 () Bool (or .def_341 .def_362))
(define-fun .def_138 () Bool (= .def_40 .x.301))
(define-fun .def_64 () Bool (= .def_36 .x.299))
(define-fun .def_330 () Bool (and .def_64 .def_138))
(define-fun .def_67 () Bool (= .def_48 .x.305))
(define-fun .def_331 () Bool (and .def_67 .def_330))
(define-fun .def_149 () Bool (= .def_52 .x.307))
(define-fun .def_332 () Bool (and .def_149 .def_331))
(define-fun .def_71 () Bool (not .loc.9))
(define-fun .def_333 () Bool (and .def_71 .def_332))
(define-fun .def_364 () Bool (and .def_333 .def_363))
(define-fun .def_324 () Bool (<= .x.307 .x.301))
(define-fun .def_325 () Int (ite .def_324 1 0))
(define-fun .def_326 () Bool (= .x.305 .def_325))
(define-fun .def_311 () Int (* 4 .def_50))
(define-fun .def_312 () Int (+ .def_32 .def_311))
(define-fun .def_212 () (Array Int Int) (select .def_14 .def_34))
(define-fun .def_321 () Int (select .def_212 .def_312))
(define-fun .def_322 () Bool (= .x.301 .def_321))
(define-fun .def_264 () Bool (<= 100000 .def_50))
(define-fun .def_319 () Bool (not .def_264))
(define-fun .def_317 () Bool (= .x.299 .x.305))
(define-fun .def_314 () Int (+ .def_312 (- 4)))
(define-fun .def_315 () Int (select .def_212 .def_314))
(define-fun .def_316 () Bool (= .x.307 .def_315))
(define-fun .def_318 () Bool (and .def_316 .def_317))
(define-fun .def_320 () Bool (and .def_318 .def_319))
(define-fun .def_323 () Bool (and .def_320 .def_322))
(define-fun .def_327 () Bool (and .def_323 .def_326))
(define-fun .def_328 () Bool (or .def_54 .def_327))
(define-fun .def_304 () Bool (and .def_153 .def_303))
(define-fun .def_305 () Bool (and .loc.9 .def_304))
(define-fun .def_306 () Bool (and .loc.11 .def_305))
(define-fun .def_307 () Bool (and .def_156 .def_306))
(define-fun .def_308 () Bool (and .def_75 .def_307))
(define-fun .def_309 () Bool (and .def_77 .def_308))
(define-fun .def_310 () Bool (and .def_79 .def_309))
(define-fun .def_329 () Bool (and .def_310 .def_328))
(define-fun .def_365 () Bool (or .def_329 .def_364))
(define-fun .def_147 () Bool (= .def_50 .x.306))
(define-fun .def_142 () Bool (= .def_44 .x.303))
(define-fun .def_301 () Bool (and .def_142 .def_147))
(define-fun .def_302 () Bool (and .def_60 .def_301))
(define-fun .def_366 () Bool (and .def_302 .def_365))
(define-fun .def_296 () Int (* (- 1) .x.306))
(define-fun .def_297 () Int (+ .def_50 .def_296))
(define-fun .def_298 () Bool (= .def_297 (- 1)))
(define-fun .def_299 () Bool (or hhv_ULTIMATE.start_ULTIMATE.startEXIT_23_Bool .def_298))
(define-fun .def_189 () Bool (and .def_64 .def_188))
(define-fun .def_190 () Bool (and .def_136 .def_189))
(define-fun .def_287 () Bool (and .def_67 .def_190))
(define-fun .def_288 () Bool (and .def_153 .def_287))
(define-fun .def_289 () Bool (and .loc.11 .def_288))
(define-fun .def_290 () Bool (and .def_71 .def_289))
(define-fun .def_291 () Bool (and .def_156 .def_290))
(define-fun .def_292 () Bool (and .def_75 .def_291))
(define-fun .def_293 () Bool (and .def_77 .def_292))
(define-fun .def_294 () Bool (and .def_79 .def_293))
(define-fun .def_295 () Bool (and .def_81 .def_294))
(define-fun .def_300 () Bool (and .def_295 .def_299))
(define-fun .def_367 () Bool (or .def_300 .def_366))
(define-fun .def_284 () Bool (= .x.306 1))
(define-fun .def_285 () Bool (or .def_54 .def_284))
(define-fun .def_191 () Bool (and .def_138 .def_190))
(define-fun .def_192 () Bool (and .def_142 .def_191))
(define-fun .def_193 () Bool (and .def_67 .def_192))
(define-fun .def_275 () Bool (and .def_149 .def_193))
(define-fun .def_276 () Bool (and .def_56 .def_275))
(define-fun .def_277 () Bool (and .def_58 .def_276))
(define-fun .def_278 () Bool (and .loc.11 .def_277))
(define-fun .def_279 () Bool (and .def_71 .def_278))
(define-fun .def_280 () Bool (and .def_156 .def_279))
(define-fun .def_281 () Bool (and .def_75 .def_280))
(define-fun .def_282 () Bool (and .def_77 .def_281))
(define-fun .def_283 () Bool (and .def_81 .def_282))
(define-fun .def_286 () Bool (and .def_283 .def_285))
(define-fun .def_368 () Bool (or .def_286 .def_367))
(define-fun .def_127 () Bool (and .def_54 .def_126))
(define-fun .def_238 () Bool (and .def_65 .def_127))
(define-fun .def_239 () Bool (and .def_131 .def_238))
(define-fun .def_240 () Bool (and .def_133 .def_239))
(define-fun .def_241 () Bool (and .def_64 .def_240))
(define-fun .def_242 () Bool (and .def_136 .def_241))
(define-fun .def_243 () Bool (and .def_138 .def_242))
(define-fun .def_244 () Bool (and .def_142 .def_243))
(define-fun .def_245 () Bool (and .def_67 .def_244))
(define-fun .def_246 () Bool (and .def_147 .def_245))
(define-fun .def_247 () Bool (and .def_149 .def_246))
(define-fun .def_267 () Bool (and .def_60 .def_247))
(define-fun .def_268 () Bool (and .def_153 .def_267))
(define-fun .def_269 () Bool (and .loc.9 .def_268))
(define-fun .def_270 () Bool (and .loc.10 .def_269))
(define-fun .def_271 () Bool (and .loc.11 .def_270))
(define-fun .def_272 () Bool (and .def_75 .def_271))
(define-fun .def_273 () Bool (and .def_77 .def_272))
(define-fun .def_274 () Bool (and .def_79 .def_273))
(define-fun .def_369 () Bool (or .def_274 .def_368))
(define-fun .def_265 () Bool (or .def_54 .def_264))
(define-fun .def_194 () Bool (and .def_147 .def_193))
(define-fun .def_195 () Bool (and .def_149 .def_194))
(define-fun .def_256 () Bool (and .def_60 .def_195))
(define-fun .def_257 () Bool (and .def_153 .def_256))
(define-fun .def_258 () Bool (and .loc.9 .def_257))
(define-fun .def_259 () Bool (and .loc.10 .def_258))
(define-fun .def_260 () Bool (and .loc.11 .def_259))
(define-fun .def_261 () Bool (and .def_75 .def_260))
(define-fun .def_262 () Bool (and .def_77 .def_261))
(define-fun .def_263 () Bool (and .def_79 .def_262))
(define-fun .def_266 () Bool (and .def_263 .def_265))
(define-fun .def_370 () Bool (or .def_266 .def_369))
(define-fun .def_248 () Bool (and .def_58 .def_247))
(define-fun .def_249 () Bool (and .def_153 .def_248))
(define-fun .def_250 () Bool (and .loc.9 .def_249))
(define-fun .def_251 () Bool (and .loc.10 .def_250))
(define-fun .def_252 () Bool (and .def_73 .def_251))
(define-fun .def_253 () Bool (and .def_75 .def_252))
(define-fun .def_254 () Bool (and .def_77 .def_253))
(define-fun .def_255 () Bool (and .def_81 .def_254))
(define-fun .def_371 () Bool (or .def_255 .def_370))
(define-fun .def_205 () Bool (<= 100000 .def_46))
(define-fun .def_236 () Bool (or .def_54 .def_205))
(define-fun .def_196 () Bool (and .def_58 .def_195))
(define-fun .def_197 () Bool (and .def_153 .def_196))
(define-fun .def_230 () Bool (and .loc.9 .def_197))
(define-fun .def_231 () Bool (and .loc.10 .def_230))
(define-fun .def_232 () Bool (and .def_73 .def_231))
(define-fun .def_233 () Bool (and .def_75 .def_232))
(define-fun .def_234 () Bool (and .def_77 .def_233))
(define-fun .def_235 () Bool (and .def_81 .def_234))
(define-fun .def_237 () Bool (and .def_235 .def_236))
(define-fun .def_372 () Bool (or .def_237 .def_371))
(define-fun .def_140 () Bool (= .def_42 .x.302))
(define-fun .def_128 () Bool (= .def_14 .x.288))
(define-fun .def_228 () Bool (and .def_128 .def_140))
(define-fun .def_144 () Bool (= .def_46 .x.304))
(define-fun .def_229 () Bool (and .def_144 .def_228))
(define-fun .def_373 () Bool (and .def_229 .def_372))
(define-fun .def_222 () Int (* (- 1) .x.304))
(define-fun .def_223 () Int (+ .def_46 .def_222))
(define-fun .def_224 () Bool (= .def_223 (- 1)))
(define-fun .def_209 () Int (* 4 .def_46))
(define-fun .def_210 () Int (+ .def_32 .def_209))
(define-fun .def_213 () Int (+ .def_210 (- 4)))
(define-fun .def_214 () Int (select .def_212 .def_213))
(define-fun .def_216 () Int (+ .def_214 1))
(define-fun .def_217 () (Array Int Int) (store .def_212 .def_210 .def_216))
(define-fun .def_218 () (Array Int (Array Int Int)) (store .def_14 .def_34 .def_217))
(define-fun .def_219 () Bool (= .x.288 .def_218))
(define-fun .def_206 () Bool (not .def_205))
(define-fun .def_220 () Bool (and .def_206 .def_219))
(define-fun .def_225 () Bool (and .def_220 .def_224))
(define-fun .def_226 () Bool (or .def_54 .def_225))
(define-fun .def_198 () Bool (and .loc.10 .def_197))
(define-fun .def_199 () Bool (and .def_71 .def_198))
(define-fun .def_200 () Bool (and .def_73 .def_199))
(define-fun .def_201 () Bool (and .def_75 .def_200))
(define-fun .def_202 () Bool (and .def_77 .def_201))
(define-fun .def_203 () Bool (and .def_81 .def_202))
(define-fun .def_227 () Bool (and .def_203 .def_226))
(define-fun .def_374 () Bool (or .def_227 .def_373))
(define-fun .def_183 () Bool (not .def_182))
(define-fun .def_184 () Bool (or .def_54 .def_183))
(define-fun .def_161 () Bool (and .def_126 .def_128))
(define-fun .def_162 () Bool (and .def_65 .def_161))
(define-fun .def_163 () Bool (and .def_131 .def_162))
(define-fun .def_164 () Bool (and .def_133 .def_163))
(define-fun .def_165 () Bool (and .def_64 .def_164))
(define-fun .def_166 () Bool (and .def_136 .def_165))
(define-fun .def_167 () Bool (and .def_138 .def_166))
(define-fun .def_168 () Bool (and .def_140 .def_167))
(define-fun .def_169 () Bool (and .def_142 .def_168))
(define-fun .def_170 () Bool (and .def_144 .def_169))
(define-fun .def_171 () Bool (and .def_67 .def_170))
(define-fun .def_172 () Bool (and .def_147 .def_171))
(define-fun .def_173 () Bool (and .def_149 .def_172))
(define-fun .def_174 () Bool (and .def_56 .def_173))
(define-fun .def_175 () Bool (and .def_60 .def_174))
(define-fun .def_176 () Bool (and .def_71 .def_175))
(define-fun .def_177 () Bool (and .def_156 .def_176))
(define-fun .def_178 () Bool (and .def_73 .def_177))
(define-fun .def_179 () Bool (and .def_75 .def_178))
(define-fun .def_180 () Bool (and .def_77 .def_179))
(define-fun .def_181 () Bool (and .def_79 .def_180))
(define-fun .def_185 () Bool (and .def_181 .def_184))
(define-fun .def_375 () Bool (or .def_185 .def_374))
(define-fun .def_129 () Bool (and .def_127 .def_128))
(define-fun .def_130 () Bool (and .def_65 .def_129))
(define-fun .def_132 () Bool (and .def_130 .def_131))
(define-fun .def_134 () Bool (and .def_132 .def_133))
(define-fun .def_135 () Bool (and .def_64 .def_134))
(define-fun .def_137 () Bool (and .def_135 .def_136))
(define-fun .def_139 () Bool (and .def_137 .def_138))
(define-fun .def_141 () Bool (and .def_139 .def_140))
(define-fun .def_143 () Bool (and .def_141 .def_142))
(define-fun .def_145 () Bool (and .def_143 .def_144))
(define-fun .def_146 () Bool (and .def_67 .def_145))
(define-fun .def_148 () Bool (and .def_146 .def_147))
(define-fun .def_150 () Bool (and .def_148 .def_149))
(define-fun .def_151 () Bool (and .def_58 .def_150))
(define-fun .def_152 () Bool (and .def_60 .def_151))
(define-fun .def_154 () Bool (and .def_152 .def_153))
(define-fun .def_155 () Bool (and .def_71 .def_154))
(define-fun .def_157 () Bool (and .def_155 .def_156))
(define-fun .def_158 () Bool (and .def_73 .def_157))
(define-fun .def_159 () Bool (and .def_75 .def_158))
(define-fun .def_160 () Bool (and .def_77 .def_159))
(define-fun .def_376 () Bool (or .def_160 .def_375))
(define-fun .def_124 () Bool (= .def_26 .x.294))
(define-fun .def_122 () Bool (= .def_18 .x.290))
(define-fun .def_121 () Bool (= .def_22 .x.292))
(define-fun .def_123 () Bool (and .def_121 .def_122))
(define-fun .def_125 () Bool (and .def_123 .def_124))
(define-fun .def_377 () Bool (and .def_125 .def_376))
(define-fun .def_116 () Bool (= .x.290 0))
(define-fun .def_115 () Bool (= .x.294 0))
(define-fun .def_117 () Bool (and .def_115 .def_116))
(define-fun .def_113 () (Array Int Int) (store .def_10 0 0))
(define-fun .def_114 () Bool (= .def_89 .def_113))
(define-fun .def_118 () Bool (and .def_114 .def_117))
(define-fun .def_119 () Bool (or .def_54 .def_118))
(define-fun .def_102 () (Array Int Int) (store .def_22 .x.298 400000))
(define-fun .def_103 () Bool (= .x.292 .def_102))
(define-fun .def_99 () Int (select .def_89 .x.298))
(define-fun .def_100 () Bool (= .def_99 0))
(define-fun .def_104 () Bool (and .def_100 .def_103))
(define-fun .def_95 () (Array Int Int) (select .def_14 .x.298))
(define-fun .def_96 () (Array Int Int) (store .def_95 .x.297 7))
(define-fun .def_97 () (Array Int (Array Int Int)) (store .def_14 .x.298 .def_96))
(define-fun .def_98 () Bool (= .x.288 .def_97))
(define-fun .def_105 () Bool (and .def_98 .def_104))
(define-fun .def_92 () Bool (= .x.298 0))
(define-fun .def_93 () Bool (not .def_92))
(define-fun .def_106 () Bool (and .def_93 .def_105))
(define-fun .def_90 () (Array Int Int) (store .def_89 .x.298 1))
(define-fun .def_91 () Bool (= .x.286 .def_90))
(define-fun .def_107 () Bool (and .def_91 .def_106))
(define-fun .def_87 () Bool (<= .x.285 .x.298))
(define-fun .def_88 () Bool (not .def_87))
(define-fun .def_108 () Bool (and .def_88 .def_107))
(define-fun .def_86 () Bool (= .x.297 0))
(define-fun .def_109 () Bool (and .def_86 .def_108))
(define-fun .def_84 () Bool (= .x.304 1))
(define-fun .def_110 () Bool (and .def_84 .def_109))
(define-fun .def_111 () Bool (or hhv_ULTIMATE.start_ULTIMATE.startEXIT_23_Bool .def_110))
(define-fun .def_66 () Bool (and .def_64 .def_65))
(define-fun .def_68 () Bool (and .def_66 .def_67))
(define-fun .def_69 () Bool (and .def_56 .def_68))
(define-fun .def_70 () Bool (and .loc.10 .def_69))
(define-fun .def_72 () Bool (and .def_70 .def_71))
(define-fun .def_74 () Bool (and .def_72 .def_73))
(define-fun .def_76 () Bool (and .def_74 .def_75))
(define-fun .def_78 () Bool (and .def_76 .def_77))
(define-fun .def_80 () Bool (and .def_78 .def_79))
(define-fun .def_82 () Bool (and .def_80 .def_81))
(define-fun .def_112 () Bool (and .def_82 .def_111))
(define-fun .def_120 () Bool (and .def_112 .def_119))
(define-fun .def_378 () Bool (or .def_120 .def_377))
(define-fun .def_392 () Bool (! (and .def_378 .def_391) :trans true))
(define-fun .def_408 () Bool (and .def_79 .def_153))
(define-fun .def_409 () Bool (and .def_81 .def_408))
(define-fun .def_410 () Bool (and .def_62 .def_409))
(define-fun .def_411 () Bool (and .def_54 .def_410))
(define-fun .def_412 () Bool (! (not .def_411) :invar-property 0))
(assert true)
